ACTORES = {Actor0, Actor1, Actor2};
Escenas =[|0,1,0,0,1,5
		      |0,0,1,0,0,13
		      |1,0,1,1,0,14
		  |];
Duracion=[4, 2, 3, 1, 1];
Disponibilidad = [|Actor0, 24
				  |Actor1, 42
				  |Actor2, 20|];
Evitar = [|Actor0, Actor2
		  |Actor0, Actor1
		  |Actor1, Actor2|];
